NAME: small20
TYPE: TSP
COMMENT: Small 20-node test instance for Held-Karp algorithm
DIMENSION: 20
EDGE_WEIGHT_TYPE: EUC_2D
NODE_COORD_SECTION
1 10.0 10.0
2 20.0 5.0
3 35.0 8.0
4 45.0 15.0
5 50.0 25.0
6 45.0 35.0
7 35.0 40.0
8 20.0 45.0
9 10.0 40.0
10 5.0 25.0
11 15.0 20.0
12 25.0 18.0
13 35.0 20.0
14 40.0 28.0
15 35.0 32.0
16 25.0 35.0
17 15.0 32.0
18 12.0 28.0
19 20.0 30.0
20 30.0 25.0
EOF 